11 11
0 2 4 100 100 100 3 100 7 100 100 
2 0 100 100 100 100 3 3 100 100 100 
4 100 0 2 100 100 2 100 3 2 100 
100 100 2 0 100 100 2 2 100 2 2 
100 100 100 100 0 2 100 100 3 2 100 
100 100 100 100 2 0 100 100 100 2 2 
3 3 2 2 100 100 0 100 100 2 100 
100 3 100 2 100 100 100 0 100 100 2 
7 100 3 100 3 100 100 100 0 100 100 
100 100 2 2 2 2 2 100 100 0 100 
100 100 100 2 100 2 100 2 100 100 0 
